SDVRP instances/custom_instances/p02_24_split0.vrp
NAME:p02_24_split
BEST_KNOWN: 0
COMMENT: 0
DIMENSION: 382
CAPACITY: 140
EDGE_WEIGHT_FORMAT: FUNCTION
EDGE_WEIGHT_TYPE: EXACT_2D
NODE_COORD_SECTION
1 0.00000 0.00000
2 47 -45
3 47 -45
4 47 -45
5 47 -45
6 47 -45
7 47 -45
8 47 -45
9 -31 22
10 -31 22
11 -31 22
12 -31 22
13 -31 22
14 5 -48
15 5 -48
16 5 -48
17 29 26
18 29 26
19 29 26
20 29 26
21 29 26
22 29 26
23 17 19
24 17 19
25 17 19
26 17 19
27 31 11
28 31 11
29 31 11
30 31 11
31 31 11
32 31 11
33 31 11
34 12 -21
35 12 -21
36 12 -21
37 12 -21
38 12 -21
39 -38 47
40 -38 47
41 -38 47
42 -38 47
43 -38 47
44 48 -49
45 48 -49
46 48 -49
47 48 -49
48 48 -49
49 48 -49
50 48 -49
51 48 -49
52 21 -7
53 21 -7
54 21 -7
55 21 -7
56 21 -7
57 21 -7
58 21 -7
59 21 -7
60 21 -7
61 6 -28
62 6 -28
63 6 -28
64 6 -28
65 -35 29
66 -35 29
67 -35 29
68 -35 29
69 -35 29
70 -35 29
71 -11 -8
72 -11 -8
73 -11 -8
74 -11 -8
75 -11 -8
76 -11 -8
77 -11 -8
78 20 -27
79 20 -27
80 20 -27
81 20 -27
82 20 -27
83 20 -27
84 20 -27
85 -40 23
86 -40 23
87 -40 23
88 -40 23
89 -40 23
90 -40 23
91 -40 23
92 -40 23
93 24 -23
94 24 -23
95 24 -23
96 24 -23
97 24 -23
98 -6 -28
99 -6 -28
100 -6 -28
101 -6 -28
102 -6 -28
103 -6 -28
104 -7 36
105 -7 36
106 -7 36
107 43 -33
108 43 -33
109 43 -33
110 43 -33
111 43 -33
112 43 -33
113 42 6
114 42 6
115 42 6
116 42 6
117 42 6
118 42 6
119 42 6
120 42 6
121 8 -10
122 8 -10
123 8 -10
124 8 -10
125 8 -10
126 8 -10
127 8 -10
128 8 -10
129 -1 -23
130 -1 -23
131 -1 -23
132 -1 -23
133 -1 -23
134 -1 -23
135 -1 -23
136 30 -31
137 30 -31
138 30 -31
139 30 -31
140 30 -31
141 25 -36
142 25 -36
143 -35 38
144 -35 38
145 -35 38
146 -35 38
147 -35 38
148 -35 38
149 -6 -18
150 -6 -18
151 -6 -18
152 -6 -18
153 -6 -18
154 -29 -18
155 -29 -18
156 10 32
157 10 32
158 10 32
159 17 33
160 17 33
161 17 33
162 17 33
163 17 33
164 17 33
165 33 -22
166 33 -22
167 33 -22
168 33 -22
169 33 -22
170 8 47
171 8 47
172 8 47
173 8 47
174 8 47
175 8 47
176 8 47
177 -49 -38
178 -49 -38
179 -49 -38
180 -49 -38
181 -22 19
182 -22 19
183 -22 19
184 -22 19
185 -22 19
186 6 -33
187 6 -33
188 6 -33
189 6 -33
190 6 -33
191 6 -33
192 6 -33
193 -1 40
194 -1 40
195 -1 40
196 -1 40
197 -1 40
198 -49 -44
199 -49 -44
200 -49 -44
201 -49 -44
202 -49 -44
203 -49 -44
204 -49 -44
205 -49 -44
206 12 48
207 12 48
208 12 48
209 12 48
210 12 48
211 12 48
212 -49 -6
213 -49 -6
214 -49 -6
215 -49 -6
216 -49 -6
217 -46 -9
218 -46 -9
219 -46 -9
220 -46 -9
221 -46 -9
222 -46 -9
223 -46 -9
224 -35 -33
225 -35 -33
226 -35 -33
227 -35 -33
228 -35 -33
229 -35 -33
230 -17 -40
231 -17 -40
232 -17 -40
233 -17 -40
234 -17 -40
235 -17 -40
236 -17 -40
237 -30 -48
238 -30 -48
239 -30 -48
240 30 -29
241 30 -29
242 30 -29
243 -46 46
244 -46 46
245 40 -49
246 40 -49
247 40 -49
248 -10 -47
249 -10 -47
250 -14 41
251 -14 41
252 -14 41
253 -14 41
254 -14 41
255 -6 -6
256 -6 -6
257 -6 -6
258 -6 -6
259 -6 -6
260 -6 -6
261 42 8
262 42 8
263 42 8
264 42 8
265 42 8
266 42 8
267 42 -21
268 42 -21
269 -5 -23
270 -5 -23
271 -5 -23
272 -5 -23
273 -5 -23
274 -5 -23
275 -5 -23
276 18 40
277 18 40
278 18 40
279 18 40
280 45 -33
281 45 -33
282 45 -33
283 45 -33
284 45 -33
285 45 -33
286 26 -33
287 26 -33
288 26 -33
289 26 -33
290 26 -33
291 26 -33
292 26 -33
293 -12 -32
294 -12 -32
295 -12 -32
296 27 18
297 27 18
298 27 18
299 -49 -50
300 -49 -50
301 -49 -50
302 -49 -50
303 -49 -50
304 -49 -50
305 2 -21
306 2 -21
307 2 -21
308 33 -48
309 33 -48
310 33 -48
311 33 -48
312 33 -48
313 -31 -4
314 -31 -4
315 -31 -4
316 -16 -27
317 -16 -27
318 -16 -27
319 -19 25
320 -19 25
321 -19 25
322 -19 25
323 -19 25
324 -19 25
325 -19 25
326 -5 -36
327 -5 -36
328 -5 -19
329 -5 -19
330 -5 -19
331 -5 -19
332 -5 -19
333 -5 -19
334 -5 -19
335 -27 17
336 -27 17
337 -2 4
338 -2 4
339 -2 -5
340 -2 -5
341 -2 -5
342 -1 -1
343 -1 -1
344 -1 -1
345 4 -45
346 4 -45
347 4 -45
348 4 -45
349 4 -45
350 4 -45
351 4 -45
352 25 38
353 25 38
354 25 38
355 25 38
356 25 38
357 -6 15
358 -6 15
359 -6 15
360 -6 15
361 -6 15
362 -29 41
363 -29 41
364 -29 41
365 -11 50
366 -11 50
367 -11 50
368 -11 50
369 -11 50
370 -11 50
371 -19 32
372 -19 32
373 -19 32
374 -19 32
375 -19 32
376 -19 32
377 -19 32
378 10 -43
379 10 -43
380 10 -43
381 10 -43
382 10 -43
DEMAND_SECTION
1 0
2 28
3 28
4 1
5 1
6 1
7 1
8 1
9 28
10 28
11 7
12 1
13 1
14 28
15 14
16 7
17 14
18 1
19 1
20 1
21 1
22 1
23 28
24 28
25 7
26 1
27 28
28 14
29 1
30 1
31 1
32 1
33 1
34 14
35 7
36 1
37 1
38 1
39 28
40 28
41 7
42 1
43 1
44 28
45 28
46 1
47 1
48 1
49 1
50 1
51 1
52 28
53 14
54 7
55 1
56 1
57 1
58 1
59 1
60 1
61 28
62 14
63 1
64 1
65 28
66 7
67 1
68 1
69 1
70 1
71 28
72 1
73 1
74 1
75 1
76 1
77 1
78 14
79 7
80 1
81 1
82 1
83 1
84 1
85 28
86 28
87 7
88 1
89 1
90 1
91 1
92 1
93 14
94 1
95 1
96 1
97 1
98 28
99 7
100 1
101 1
102 1
103 1
104 28
105 14
106 1
107 28
108 7
109 1
110 1
111 1
112 1
113 14
114 7
115 1
116 1
117 1
118 1
119 1
120 1
121 28
122 7
123 1
124 1
125 1
126 1
127 1
128 1
129 14
130 1
131 1
132 1
133 1
134 1
135 1
136 28
137 7
138 1
139 1
140 1
141 28
142 1
143 28
144 7
145 1
146 1
147 1
148 1
149 14
150 7
151 1
152 1
153 1
154 28
155 28
156 28
157 1
158 1
159 28
160 14
161 7
162 1
163 1
164 1
165 28
166 14
167 1
168 1
169 1
170 28
171 1
172 1
173 1
174 1
175 1
176 1
177 28
178 28
179 7
180 1
181 28
182 1
183 1
184 1
185 1
186 28
187 1
188 1
189 1
190 1
191 1
192 1
193 28
194 14
195 7
196 1
197 1
198 14
199 7
200 1
201 1
202 1
203 1
204 1
205 1
206 14
207 1
208 1
209 1
210 1
211 1
212 28
213 28
214 7
215 1
216 1
217 14
218 7
219 1
220 1
221 1
222 1
223 1
224 28
225 28
226 7
227 1
228 1
229 1
230 28
231 28
232 7
233 1
234 1
235 1
236 1
237 14
238 7
239 1
240 28
241 28
242 14
243 28
244 14
245 28
246 1
247 1
248 28
249 7
250 28
251 1
252 1
253 1
254 1
255 14
256 1
257 1
258 1
259 1
260 1
261 28
262 28
263 7
264 1
265 1
266 1
267 28
268 14
269 28
270 7
271 1
272 1
273 1
274 1
275 1
276 28
277 14
278 7
279 1
280 28
281 1
282 1
283 1
284 1
285 1
286 28
287 1
288 1
289 1
290 1
291 1
292 1
293 28
294 28
295 14
296 14
297 7
298 1
299 28
300 7
301 1
302 1
303 1
304 1
305 28
306 1
307 1
308 28
309 14
310 7
311 1
312 1
313 28
314 28
315 7
316 28
317 14
318 1
319 28
320 14
321 7
322 1
323 1
324 1
325 1
326 28
327 28
328 28
329 1
330 1
331 1
332 1
333 1
334 1
335 14
336 7
337 14
338 7
339 14
340 7
341 1
342 28
343 14
344 1
345 28
346 28
347 1
348 1
349 1
350 1
351 1
352 14
353 7
354 1
355 1
356 1
357 28
358 14
359 1
360 1
361 1
362 28
363 28
364 1
365 28
366 7
367 1
368 1
369 1
370 1
371 14
372 7
373 1
374 1
375 1
376 1
377 1
378 28
379 14
380 7
381 1
382 1
DEPOT_SECTION
1
-1
EOF