SDVRP instances/custom_instances/p02_24_split0.sol
381 -9 11 12 8 10 89 87 84 91 85 88 86 90 -24 23 22 296 297 295 53 57 55 59 52 54 51 58 56 -25 21 17 18 20 16 19 354 351 353 352 355 277 276 275 278 162 161 159 155 156 157 -30 29 31 27 28 32 26 264 260 262 265 261 263 115 112 114 117 119 116 118 113 -34 33 285 287 290 286 291 289 288 140 141 379 377 378 380 381 189 186 188 191 -37 35 36 79 82 80 77 78 83 81 139 135 136 137 138 239 241 240 125 124 122 -38 40 42 41 39 242 243 146 142 144 147 -63 61 62 60 325 326 98 97 99 102 100 101 273 -71 75 76 74 70 73 72 153 154 316 317 315 -104 105 103 365 367 369 368 366 364 251 250 249 253 252 373 375 370 376 374 371 372 -106 108 110 109 279 246 245 244 308 310 311 309 307 -107 111 282 281 283 280 284 3 1 2 6 7 5 4 48 47 46 43 49 50 45 44 94 95 127 123 -126 121 120 96 92 93 164 167 165 166 168 266 267 -149 148 332 327 330 272 271 270 274 268 269 128 129 134 131 133 132 130 305 304 306 -150 151 152 329 333 328 331 248 247 238 237 236 302 301 300 299 298 303 197 198 199 200 202 201 204 203 226 225 227 228 -160 158 163 206 208 207 209 205 210 170 175 172 174 169 173 171 193 196 195 194 192 -182 184 183 181 180 319 318 357 358 356 359 360 337 336 -190 185 187 15 13 14 344 348 347 345 350 346 349 -216 177 178 179 176 224 223 258 259 256 257 255 -220 217 219 218 221 222 213 215 211 212 214 313 312 314 -231 235 232 233 229 230 234 294 293 292 -320 321 322 324 323 361 363 362 145 143 64 65 67 68 66 69 335 334 -339 340 338 254 343 341 342 0 





OBJ=
2291.742
BEST_KNOWN=
0.000